set Stages := FirstStage SecondStage  ;

set Nodes := 
RootNode  
ScenNode1
ScenNode2
ScenNode3
ScenNode4
ScenNode5
ScenNode6
ScenNode7
ScenNode8
ScenNode9
ScenNode10
;

param NodeStage :=  
RootNode FirstStage  
ScenNode1 SecondStage 
ScenNode2 SecondStage 
ScenNode3 SecondStage 
ScenNode4 SecondStage 
ScenNode5 SecondStage 
ScenNode6 SecondStage 
ScenNode7 SecondStage 
ScenNode8 SecondStage 
ScenNode9 SecondStage 
ScenNode10 SecondStage 
;

set Children[RootNode]:= 
ScenNode1
ScenNode2
ScenNode3
ScenNode4
ScenNode5
ScenNode6
ScenNode7
ScenNode8
ScenNode9
ScenNode10
;

param ConditionalProbability := 
RootNode 1.0 
ScenNode1 0.1
ScenNode2 0.1
ScenNode3 0.1
ScenNode4 0.1
ScenNode5 0.1
ScenNode6 0.1
ScenNode7 0.1
ScenNode8 0.1
ScenNode9 0.1
ScenNode10 0.1
;

set Scenarios := 
Scen1
Scen2
Scen3
Scen4
Scen5
Scen6
Scen7
Scen8
Scen9
Scen10
;

param ScenarioLeafNode := 
Scen1 ScenNode1
Scen2 ScenNode2
Scen3 ScenNode3
Scen4 ScenNode4
Scen5 ScenNode5
Scen6 ScenNode6
Scen7 ScenNode7
Scen8 ScenNode8
Scen9 ScenNode9
Scen10 ScenNode10
;

set StageVariables[FirstStage] := 
x[*]
z[*]
;

set StageVariables[SecondStage] := 
xs[*,*,*]
ws[*,*,*]
zs[*]
u[*,*,*]
v[*,*,*]
;

#firstStageObj is the first stage cost variable in model, so is the secondStageObj
param StageCost := 
FirstStage  firstStageObj
SecondStage  secondStageObj
;

param ScenarioBasedData := False ;